\ LP format - for model browsing. Use MPS format to capture full model detail.
Minimize
  C54(1)
Subject To
 c0: B0(11) = 1
 c1: B1(12) + B2(13) = 1
 c2: B3(12) + B4(9) = 1
 c3: B5(11) = 1
 c4: B6(11) + B7(14) = 1
 c5: B8(9) = 1
 c6: B9(13) + B10(11) = 1
 c7: B11(13) + B12(10) = 1
 c8: B13(10) + B14(8) = 1
 c9: - 1e+09 B0(11) + C39(11) <= 0
 c10: - 1e+09 B1(12) + C40(13) <= 0
 c11: - 1e+09 B2(13) + C41(15) <= 0
 c12: - 1e+09 B3(12) + C42(13) <= 0
 c13: - 1e+09 B4(9) + C43(11) <= 0
 c14: - 1e+09 B5(11) + C44(11) <= 0
 c15: - 1e+09 B6(11) + C45(12) <= 0
 c16: - 1e+09 B7(14) + C46(16) <= 0
 c17: - 1e+09 B8(9) + C47(10) <= 0
 c18: - 1e+09 B9(13) + C48(13) <= 0
 c19: - 1e+09 B10(11) + C49(11) <= 0
 c20: - 1e+09 B11(13) + C50(14) <= 0
 c21: - 1e+09 B12(10) + C51(12) <= 0
 c22: - 1e+09 B13(10) + C52(12) <= 0
 c23: - 1e+09 B14(8) + C53(10) <= 0
 c24: - 17 B0(11) - C39(11) + C40(13) + C41(15) >= 0
 c25: - 1.000000017e+09 B0(11) - 1e+09 B1(12) - C39(11) + C40(13) + C41(15)
   >= -1.99999999e+09
 c26: - 40 B1(12) - 130 B2(13) - C40(13) - C41(15) + C42(13) + C43(11)
   >= 0
 c27: - 40 B1(12) - 1.00000013e+09 B2(13) - 1e+09 B3(12) - C40(13)
   - C41(15) + C42(13) + C43(11) >= -1.99999999e+09
 c28: - 30 B5(11) - C44(11) + C45(12) + C46(16) >= 0
 c29: - 1.00000003e+09 B5(11) - 1e+09 B6(11) - C44(11) + C45(12) + C46(16)
   >= -1.99999999e+09
 c30: - 150 B6(11) - 160 B7(14) - C45(12) - C46(16) + C47(10) >= 0
 c31: - 50 B9(13) - 60 B10(11) - C48(13) - C49(11) + C50(14) + C51(12)
   >= 0
 c32: - 50 B9(13) - 1.00000006e+09 B10(11) - 1e+09 B11(13) - C48(13)
   - C49(11) + C50(14) + C51(12) >= -1.999999995e+09
 c33: - 170 B11(13) - 180 B12(10) - C50(14) - C51(12) + C52(12) + C53(10)
   >= 0
 c34: - 1.00000017e+09 B11(13) - 180 B12(10) - 1e+09 B13(10) - C50(14)
   - C51(12) + C52(12) + C53(10) >= -1.999999991e+09
 c35: - 170 B11(13) - 1.00000018e+09 B12(10) - 1e+09 B14(8) - C50(14)
   - C51(12) + C52(12) + C53(10) >= -1.999999991e+09
 c36: - 1e+09 B0(11) - 1e+09 B5(11) - 1e+09 B15(2) + C39(11) - C44(11)
   >= -2.999999963e+09
 c37: - 1e+09 B0(11) - 1e+09 B5(11) + 1e+09 B15(2) - C39(11) + C44(11)
   >= -1.999999972e+09
 c38: - 1e+09 B0(11) - 1e+09 B6(11) - 1e+09 B16(2) + C39(11) - C45(12)
   >= -2.999999841e+09
 c39: - 1e+09 B0(11) - 1e+09 B6(11) + 1e+09 B16(2) - C39(11) + C45(12)
   >= -1.999999975e+09
 c40: - 1e+09 B0(11) - 1e+09 B9(13) - 1e+09 B17(2) + C39(11) - C48(13)
   >= -2.999999941e+09
 c41: - 1e+09 B0(11) - 1e+09 B9(13) + 1e+09 B17(2) - C39(11) + C48(13)
   >= -1.999999973e+09
 c42: - 1e+09 B1(12) - 1e+09 B5(11) - 1e+09 B18(2) + C40(13) - C44(11)
   >= -2.999999961e+09
 c43: - 1e+09 B1(12) - 1e+09 B5(11) + 1e+09 B18(2) - C40(13) + C44(11)
   >= -1.999999951e+09
 c44: - 1e+09 B1(12) - 1e+09 B6(11) - 1e+09 B19(2) + C40(13) - C45(12)
   >= -2.99999984e+09
 c45: - 1e+09 B1(12) - 1e+09 B6(11) + 1e+09 B19(2) - C40(13) + C45(12)
   >= -1.99999995e+09
 c46: - 1e+09 B2(13) - 1e+09 B7(14) - 1e+09 B20(2) + C41(15) - C46(16)
   >= -2.999999832e+09
 c47: - 1e+09 B2(13) - 1e+09 B7(14) + 1e+09 B20(2) - C41(15) + C46(16)
   >= -1.999999861e+09
 c48: - 1e+09 B1(12) - 1e+09 B9(13) - 1e+09 B21(2) + C40(13) - C48(13)
   >= -2.999999943e+09
 c49: - 1e+09 B1(12) - 1e+09 B9(13) + 1e+09 B21(2) - C40(13) + C48(13)
   >= -1.999999953e+09
 c50: - 1e+09 B2(13) - 1e+09 B10(11) - 1e+09 B22(2) + C41(15) - C49(11)
   >= -2.999999932e+09
 c51: - 1e+09 B2(13) - 1e+09 B10(11) + 1e+09 B22(2) - C41(15) + C49(11)
   >= -1.99999986e+09
 c52: - 1e+09 B2(13) - 1e+09 B11(13) - 1e+09 B23(2) + C41(15) - C50(14)
   >= -2.999999819e+09
 c53: - 1e+09 B2(13) - 1e+09 B11(13) + 1e+09 B23(2) - C41(15) + C50(14)
   >= -1.99999986e+09
 c54: - 1e+09 B2(13) - 1e+09 B13(10) - 1e+09 B24(2) + C41(15) - C52(12)
   >= -2.999999902e+09
 c55: - 1e+09 B2(13) - 1e+09 B13(10) + 1e+09 B24(2) - C41(15) + C52(12)
   >= -1.999999862e+09
 c56: - 1e+09 B3(12) - 1e+09 B7(14) - 1e+09 B25(2) + C42(13) - C46(16)
   >= -2.99999983e+09
 c57: - 1e+09 B3(12) - 1e+09 B7(14) + 1e+09 B25(2) - C42(13) + C46(16)
   >= -1.999999937e+09
 c58: - 1e+09 B4(9) - 1e+09 B8(9) - 1e+09 B26(2) + C43(11) - C47(10)
   >= -2.999999921e+09
 c59: - 1e+09 B4(9) - 1e+09 B8(9) + 1e+09 B26(2) - C43(11) + C47(10)
   >= -1.999999929e+09
 c60: - 1e+09 B3(12) - 1e+09 B10(11) - 1e+09 B27(2) + C42(13) - C49(11)
   >= -2.999999932e+09
 c61: - 1e+09 B3(12) - 1e+09 B10(11) + 1e+09 B27(2) - C42(13) + C49(11)
   >= -1.999999944e+09
 c62: - 1e+09 B3(12) - 1e+09 B11(13) - 1e+09 B28(2) + C42(13) - C50(14)
   >= -2.999999822e+09
 c63: - 1e+09 B3(12) - 1e+09 B11(13) + 1e+09 B28(2) - C42(13) + C50(14)
   >= -1.99999994e+09
 c64: - 1e+09 B4(9) - 1e+09 B12(10) - 1e+09 B29(2) + C43(11) - C51(12)
   >= -2.999999813e+09
 c65: - 1e+09 B4(9) - 1e+09 B12(10) + 1e+09 B29(2) - C43(11) + C51(12)
   >= -1.999999932e+09
 c66: - 1e+09 B3(12) - 1e+09 B13(10) - 1e+09 B30(2) + C42(13) - C52(12)
   >= -2.999999902e+09
 c67: - 1e+09 B3(12) - 1e+09 B13(10) + 1e+09 B30(2) - C42(13) + C52(12)
   >= -1.99999994e+09
 c68: - 1e+09 B4(9) - 1e+09 B14(8) - 1e+09 B31(2) + C43(11) - C53(10)
   >= -2.999999889e+09
 c69: - 1e+09 B4(9) - 1e+09 B14(8) + 1e+09 B31(2) - C43(11) + C53(10)
   >= -1.999999932e+09
 c70: - 1e+09 B5(11) - 1e+09 B9(13) - 1e+09 B32(2) + C44(11) - C48(13)
   >= -2.999999938e+09
 c71: - 1e+09 B5(11) - 1e+09 B9(13) + 1e+09 B32(2) - C44(11) + C48(13)
   >= -1.999999961e+09
 c72: - 1e+09 B6(11) - 1e+09 B9(13) - 1e+09 B33(2) + C45(12) - C48(13)
   >= -2.999999942e+09
 c73: - 1e+09 B6(11) - 1e+09 B9(13) + 1e+09 B33(2) - C45(12) + C48(13)
   >= -1.99999984e+09
 c74: - 1e+09 B7(14) - 1e+09 B10(11) - 1e+09 B34(2) + C46(16) - C49(11)
   >= -2.99999993e+09
 c75: - 1e+09 B7(14) - 1e+09 B10(11) + 1e+09 B34(2) - C46(16) + C49(11)
   >= -1.999999833e+09
 c76: - 1e+09 B7(14) - 1e+09 B11(13) - 1e+09 B35(2) + C46(16) - C50(14)
   >= -2.999999822e+09
 c77: - 1e+09 B7(14) - 1e+09 B11(13) + 1e+09 B35(2) - C46(16) + C50(14)
   >= -1.999999828e+09
 c78: - 1e+09 B7(14) - 1e+09 B13(10) - 1e+09 B36(2) + C46(16) - C52(12)
   >= -2.999999903e+09
 c79: - 1e+09 B7(14) - 1e+09 B13(10) + 1e+09 B36(2) - C46(16) + C52(12)
   >= -1.999999832e+09
 c80: - 1e+09 B8(9) - 1e+09 B12(10) - 1e+09 B37(2) + C47(10) - C51(12)
   >= -2.999999808e+09
 c81: - 1e+09 B8(9) - 1e+09 B12(10) + 1e+09 B37(2) - C47(10) + C51(12)
   >= -1.999999924e+09
 c82: - 1e+09 B8(9) - 1e+09 B14(8) - 1e+09 B38(2) + C47(10) - C53(10)
   >= -2.99999989e+09
 c83: - 1e+09 B8(9) - 1e+09 B14(8) + 1e+09 B38(2) - C47(10) + C53(10)
   >= -1.99999992e+09
 c84: C39(11) >= 0
 c85: C40(13) >= 0
 c86: C41(15) >= 0
 c87: C42(13) >= 0
 c88: C43(11) >= 0
 c89: C44(11) >= 0
 c90: C45(12) >= 0
 c91: C46(16) >= 0
 c92: C47(10) >= 0
 c93: C48(13) >= 0
 c94: C49(11) >= 0
 c95: C50(14) >= 0
 c96: C51(12) >= 0
 c97: C52(12) >= 0
 c98: C53(10) >= 0
 c99: - 17 B0(11) - 40 B1(12) - 130 B2(13) - 50 B3(12) - 60 B4(9)
   - 30 B5(11) - 150 B6(11) - 160 B7(14) - 70 B8(9) - 50 B9(13)
   - 60 B10(11) - 170 B11(13) - 180 B12(10) - 90 B13(10) - 100 B14(8)
   - C39(11) - C40(13) - C41(15) - C42(13) - C43(11) - C44(11) - C45(12)
   - C46(16) - C47(10) - C48(13) - C49(11) - C50(14) - C51(12) - C52(12)
   - C53(10) + C54(1) = 0
Bounds
Binaries
 B0(11) B1(12) B2(13) B3(12) B4(9) B5(11) B6(11) B7(14) B8(9) B9(13)
 B10(11) B11(13) B12(10) B13(10) B14(8) B15(2) B16(2) B17(2) B18(2) B19(2)
 B20(2) B21(2) B22(2) B23(2) B24(2) B25(2) B26(2) B27(2) B28(2) B29(2)
 B30(2) B31(2) B32(2) B33(2) B34(2) B35(2) B36(2) B37(2) B38(2)
End
